 vasp.5.4.1 05Feb16 (build Nov 09 2016 14:59:05) complex

 executed on           IFC91_ompi date 2019.04.09  20:53:16

 INCAR:
 POTCAR:    PAW_PBE Cl 06Sep2000
 POTCAR:    PAW_PBE Li 17Jan2003
 POTCAR:    PAW_PBE P 06Sep2000
 POTCAR:    PAW_PBE S 06Sep2000
 POTCAR:    PAW_PBE Cl 06Sep2000
   VRHFIN =Cl: s2p5

   TITEL  = PAW_PBE Cl 06Sep2000
   POMASS =   35.453; ZVAL   =    7.000    mass and valenz
   ENMAX  =  262.472; ENMIN  =  196.854 eV

 POTCAR:    PAW_PBE Li 17Jan2003
   VRHFIN =Li: s1p0

   TITEL  = PAW_PBE Li 17Jan2003
   POMASS =    7.010; ZVAL   =    1.000    mass and valenz
   ENMAX  =  140.000; ENMIN  =  100.000 eV

 POTCAR:    PAW_PBE P 06Sep2000
   VRHFIN =P : s2p3

[...]

 POTCAR:    PAW_PBE S 06Sep2000
   VRHFIN =S : s2p4

   TITEL  = PAW_PBE S 06Sep2000
   POMASS =   32.066; ZVAL   =    6.000    mass and valenz
   ENMAX  =  258.689; ENMIN  =  194.016 eV

 Optimization of the real space projectors (new method)

 maximal supplied QI-value         = 19.84
 optimisation between [QCUT,QGAM] = [ 11.31, 22.82] = [ 35.82,145.81] Ry
 Optimized for a Real-space Cutoff    1.16 Angstroem

   l    n(q)    QCUT    max X(q) W(low)/X(q) W(high)/X(q)  e(spline)
   0      8    11.310   168.010    0.31E-03    0.34E-03    0.40E-07
   0      8    11.310   164.674    0.31E-03    0.33E-03    0.39E-07
   1      7    11.310    69.222    0.33E-03    0.38E-03    0.90E-07
   1      7    11.310    56.786    0.32E-03    0.37E-03    0.88E-07
 Optimization of the real space projectors (new method)

[...]

   l    n(q)    QCUT    max X(q) W(low)/X(q) W(high)/X(q)  e(spline)
   0      8    11.310   160.924    0.33E-03    0.34E-03    0.44E-07
   0      8    11.310   130.086    0.32E-03    0.34E-03    0.44E-07
   1      7    11.310    74.434    0.30E-03    0.36E-03    0.84E-07
   1      7    11.310    49.120    0.29E-03    0.35E-03    0.82E-07
 Optimization of the real space projectors (new method)

 maximal supplied QI-value         = 19.84
 optimisation between [QCUT,QGAM] = [ 11.31, 22.82] = [ 35.82,145.81] Ry
 Optimized for a Real-space Cutoff    1.16 Angstroem

   l    n(q)    QCUT    max X(q) W(low)/X(q) W(high)/X(q)  e(spline)
   0      8    11.310   187.594    0.35E-03    0.37E-03    0.44E-07
   0      8    11.310   164.243    0.34E-03    0.37E-03    0.44E-07
   1      7    11.310    67.533    0.33E-03    0.37E-03    0.88E-07
   1      7    11.310    50.729    0.32E-03    0.36E-03    0.86E-07
  PAW_PBE Cl 06Sep2000                  :
  PAW_PBE Li 17Jan2003                  :
  PAW_PBE P 06Sep2000                   :
  PAW_PBE S 06Sep2000                   :

 POSCAR: Cl4Li24P4S20-1
  positions in direct lattice
 exchange correlation table for  LEXCH =        8
   RHO(1)=    0.500       N(1)  =     2000
   RHO(2)=  100.500       N(2)  =     4000

 ion  position               nearest neighbor table
   1  0.250  0.250  0.750-   5 2.33  10 2.33  18 2.33  19 2.33  22 2.33  25 2.33
   2  0.750  0.750  0.750-   7 2.33  12 2.33  14 2.33  15 2.33  23 2.33  28 2.33
   3  0.250  0.750  0.250-   8 2.33  11 2.33  17 2.33  20 2.33  21 2.33  26 2.33
   4  0.500  0.500  0.500-
   5  0.023  0.250  0.750-   1 2.33  38 2.42  41 2.42  22 3.30  25 3.30  18 3.30  19 3.30
   6  0.523  0.250  0.250-  49 2.33  43 2.42  40 2.42  27 3.30  13 3.30  16 3.30  24 3.30
   7  0.977  0.750  0.750-   2 2.33  34 2.42  45 2.42  23 3.30  28 3.30  14 3.30  15 3.30
   8  0.477  0.750  0.250-   3 2.33  36 2.42  47 2.42  21 3.30  26 3.30  17 3.30  20 3.30
   9  0.977  0.250  0.250-  49 2.33  46 2.42  33 2.42  27 3.30  13 3.30  16 3.30  24 3.30
  10  0.477  0.250  0.750-   1 2.33  35 2.42  48 2.42  22 3.30  25 3.30  18 3.30  19 3.30
  11  0.023  0.750  0.250-   3 2.33  37 2.42  42 2.42  21 3.30  26 3.30  17 3.30  20 3.30
  12  0.523  0.750  0.750-   2 2.33  39 2.42  44 2.42  23 3.30  28 3.30  14 3.30  15 3.30
  13  0.750  0.023  0.250-  49 2.33  47 2.42  37 2.42  27 3.30   6 3.30   9 3.30  24 3.30
  14  0.750  0.523  0.750-   2 2.33  38 2.42  48 2.42  23 3.30  28 3.30   7 3.30  12 3.30
  15  0.750  0.977  0.750-   2 2.33  35 2.42  41 2.42  23 3.30  28 3.30   7 3.30  12 3.30
  16  0.750  0.477  0.250-  49 2.33  42 2.42  36 2.42  27 3.30   6 3.30   9 3.30  24 3.30
  17  0.250  0.977  0.250-   3 2.33  33 2.42  43 2.42  21 3.30  26 3.30   8 3.30  11 3.30
  18  0.250  0.477  0.750-   1 2.33  34 2.42  44 2.42  22 3.30  25 3.30   5 3.30  10 3.30
  19  0.250  0.023  0.750-   1 2.33  39 2.42  45 2.42  22 3.30  25 3.30   5 3.30  10 3.30
  20  0.250  0.523  0.250-   3 2.33  40 2.42  46 2.42  21 3.30  26 3.30   8 3.30  11 3.30
  21  0.250  0.750  0.023-   3 2.33  44 2.42  45 2.42  17 3.30  20 3.30   8 3.30  11 3.30
  22  0.250  0.250  0.523-   1 2.33  43 2.42  46 2.42  18 3.30  19 3.30   5 3.30  10 3.30
  23  0.750  0.750  0.977-   2 2.33  36 2.42  37 2.42  14 3.30  15 3.30   7 3.30  12 3.30
  24  0.750  0.250  0.477-  49 2.33  38 2.42  35 2.42  16 3.30   6 3.30   9 3.30  13 3.30
  25  0.250  0.250  0.977-   1 2.33  33 2.42  40 2.42  18 3.30  19 3.30   5 3.30  10 3.30
  26  0.250  0.750  0.477-   3 2.33  34 2.42  39 2.42  17 3.30  20 3.30   8 3.30  11 3.30
  27  0.750  0.250  0.023-  49 2.33  48 2.42  41 2.42  16 3.30   6 3.30   9 3.30  13 3.30
  28  0.750  0.750  0.523-   2 2.33  42 2.42  47 2.42  14 3.30  15 3.30   7 3.30  12 3.30
  29  0.000  0.000  0.000-  33 2.06  37 2.06  41 2.06  45 2.06
  30  0.000  0.500  0.500-  34 2.06  38 2.06  42 2.06  46 2.06
  31  0.500  0.000  0.500-  35 2.06  39 2.06  43 2.06  47 2.06
  32  0.500  0.500  0.000-  36 2.06  40 2.06  44 2.06  48 2.06
  33  0.116  0.116  0.116-  29 2.06  17 2.42  25 2.42   9 2.42
  34  0.116  0.616  0.616-  30 2.06  18 2.42  26 2.42   7 2.42
  35  0.616  0.116  0.616-  31 2.06  15 2.42  24 2.42  10 2.42
  36  0.616  0.616  0.116-  32 2.06  16 2.42  23 2.42   8 2.42
  37  0.884  0.884  0.116-  29 2.06  13 2.42  23 2.42  11 2.42
  38  0.884  0.384  0.616-  30 2.06  14 2.42  24 2.42   5 2.42
  39  0.384  0.884  0.616-  31 2.06  19 2.42  26 2.42  12 2.42
  40  0.384  0.384  0.116-  32 2.06  20 2.42  25 2.42   6 2.42
  41  0.884  0.116  0.884-  29 2.06  15 2.42  27 2.42   5 2.42
  42  0.884  0.616  0.384-  30 2.06  16 2.42  28 2.42  11 2.42
  43  0.384  0.116  0.384-  31 2.06  17 2.42  22 2.42   6 2.42
  44  0.384  0.616  0.884-  32 2.06  18 2.42  21 2.42  12 2.42
  45  0.116  0.884  0.884-  29 2.06  19 2.42  21 2.42   7 2.42
  46  0.116  0.384  0.384-  30 2.06  20 2.42  22 2.42   9 2.42
  47  0.616  0.884  0.384-  31 2.06  13 2.42  28 2.42   8 2.42
  48  0.616  0.384  0.884-  32 2.06  14 2.42  27 2.42  10 2.42
  49  0.750  0.250  0.250-   6 2.33   9 2.33  13 2.33  16 2.33  24 2.33  27 2.33
  50  0.000  0.000  0.500-
  51  0.000  0.500  0.000-
  52  0.500  0.000  0.000-

  LATTYP: Found a simple cubic cell.
 ALAT       =    10.2795000000

  Lattice vectors:

 A1 = (  10.2795000000,   0.0000000000,   0.0000000000)
 A2 = (   0.0000000000,  10.2795000000,   0.0000000000)
 A3 = (   0.0000000000,   0.0000000000,  10.2795000000)

Analysis of symmetry for initial positions (statically):
 Subroutine PRICEL returns:
 Original cell was already a primitive cell.

 Routine SETGRP: Setting up the symmetry group for a
 simple cubic supercell.

 Subroutine GETGRP returns: Found  6 space group operations
 (whereof  6 operations were pure point group operations)
 out of a pool of 48 trial point group operations.

The static configuration has the point symmetry C_3v.

Analysis of symmetry for dynamics (positions and initial velocities):
 Subroutine PRICEL returns:
 Original cell was already a primitive cell.

 Routine SETGRP: Setting up the symmetry group for a
 simple cubic supercell.

 Subroutine GETGRP returns: Found  6 space group operations
 (whereof  6 operations were pure point group operations)
 out of a pool of 48 trial point group operations.

The dynamic configuration has the point symmetry C_3v.

 Subroutine INISYM returns: Found  6 space group operations
 (whereof  6 operations are pure point group operations),
 and found     1 'primitive' translations

 KPOINTS: Li6PS5Cl

Automatic generation of k-mesh.
Space group operators:
 irot       det(A)        alpha          n_x          n_y          n_z        tau_x        tau_y        tau_z
    1     1.000000     0.000000     1.000000     0.000000     0.000000     0.000000     0.000000     0.000000
    2     1.000000   120.000000    -0.577350     0.577350     0.577350     0.000000     0.000000     0.000000
    3    -1.000000   180.000000     0.707107     0.000000     0.707107     0.000000     0.000000     0.000000
    4    -1.000000   180.000000     0.707107     0.707107     0.000000     0.000000     0.000000     0.000000
    5     1.000000   120.000000     0.577350    -0.577350    -0.577350     0.000000     0.000000     0.000000
    6    -1.000000   180.000000     0.000000    -0.707107     0.707107     0.000000     0.000000     0.000000

 Subroutine IBZKPT returns following result:

 Found      1 irreducible k-points:

 Following reciprocal coordinates:
            Coordinates               Weight
  0.000000  0.000000  0.000000      1.000000

 Following cartesian coordinates:
            Coordinates               Weight
  0.000000  0.000000  0.000000      1.000000

 I would recommend the setting:
   dimension x,y,z NGX =    56 NGY =   56 NGZ =   56
 SYSTEM =  Li6PS5Cl
 POSCAR =  Cl4Li24P4S20-1

 Startparameter for this run:
   NWRITE =      2    write-flag & timer
   PREC   = normal    normal or accurate (medium, high low for compatibility)
   ISTART =      0    job   : 0-new  1-cont  2-samecut
   ICHARG =      2    charge: 1-file 2-atom 10-const
   ISPIN  =      1    spin polarized calculation?
   LNONCOLLINEAR =      F non collinear calculations
   LSORBIT =      F    spin-orbit coupling
   INIWAV =      1    electr: 0-lowe 1-rand  2-diag
   LASPH  =      F    aspherical Exc in radial PAW
   METAGGA=      F    non-selfconsistent MetaGGA calc.

 Electronic Relaxation 1
   ENCUT  =  500.0 eV  36.75 Ry    6.06 a.u.  18.74 18.74 18.74*2*pi/ulx,y,z
   ENINI  =  500.0     initial cutoff
   ENAUG  =  356.2 eV  augmentation charge cutoff
   NELM   =    100;   NELMIN=  2; NELMDL= -5     # of ELM steps
   EDIFF  = 0.1E-03   stopping-criterion for ELM
   LREAL  =      T    real-space projection
   NLSPLINE    = F    spline interpolate recip. space projectors
   LCOMPAT=      F    compatible to vasp.4.4
   GGA_COMPAT  = T    GGA compatible to vasp.4.4-vasp.4.6
   LMAXPAW     = -100 max onsite density
   LMAXMIX     =    2 max onsite mixed and CHGCAR
   VOSKOWN=      0    Vosko Wilk Nusair interpolation
   ROPT   =   -0.00050  -0.00050  -0.00050  -0.00050
 Ionic relaxation
   EDIFFG = -.4E-01   stopping-criterion for IOM
   NSW    =    200    number of steps for IOM
   NBLOCK =      1;   KBLOCK =     10    inner block; outer block
   IBRION =      2    ionic relax: 0-MD 1-quasi-New 2-CG
   NFREE  =      1    steps in history (QN), initial steepest desc. (CG)
   ISIF   =      3    stress and relaxation
   IWAVPR =     11    prediction:  0-non 1-charg 2-wave 3-comb
   ISYM   =      2    0-nonsym 1-usesym 2-fastsym
   LCORR  =      T    Harris-Foulkes like correction to forces

   POTIM  = 0.5000    time-step for ionic-motion
[...]
    118       6.5773      0.00000
    119       6.6467      0.00000
    120       6.6467      0.00000
    121       6.9510      0.00000
    122       6.9510      0.00000
    123       7.0444      0.00000
    124       7.2030      0.00000
    125       7.3777      0.00000
    126       7.3777      0.00000

 soft charge-density along one line, spin component           1
         0         1         2         3         4         5         6         7         8         9
 total charge-density along one line

------------------------ aborting loop because EDIFF is reached ----------------------------------------

[...]

  FORCE on cell =-STRESS in cart. coord.  units (eV):
  Direction    XX          YY          ZZ          XY          YZ          ZX
  Alpha Z   143.06694   143.06694   143.06694
  Ewald   -2047.91654 -2047.91654 -2047.91654    22.22032   -22.22032    22.22032
  Hartree   660.04287   660.04287   660.04287    25.13523   -25.13523    25.13523
  E(xc)    -651.06962  -651.06962  -651.06962     0.06696    -0.06696     0.06696
  Local   -2056.99021 -2056.99021 -2056.99021   -47.01506    47.01506   -47.01506
  n-local  2040.36346  2040.36346  2040.36346    -1.16072     1.16072    -1.16072
  augment  -460.10747  -460.10747  -460.10747     0.05028    -0.05028     0.05028
  Kinetic  2373.27151  2373.27151  2373.27151     0.38735    -0.38735     0.38735
  Fock        0.00000     0.00000     0.00000     0.00000     0.00000     0.00000
  Total       0.66095     0.66095     0.66095    -0.31564     0.31564    -0.31564
  in kB       1.02889     1.02889     1.02889    -0.49134     0.49134    -0.49134

 VOLUME and BASIS-vectors are now :
  energy-cutoff  :      500.00
  volume of cell :     1029.23
      direct lattice vectors                 reciprocal lattice vectors
    10.096492569  0.001658371  0.001658371     0.099044301 -0.000016271 -0.000016271
     0.001658371 10.096492569 -0.001658371    -0.000016271  0.099044301  0.000016271
     0.001658371 -0.001658371 10.096492569    -0.000016271  0.000016271  0.099044301

  length of vectors
    10.096492841 10.096492841 10.096492841     0.099044304  0.099044304  0.099044304

 FORCES acting on ions
    electron-ion (+dipol)            ewald-force                    non-local-force                 convergence-correction
   -.196E+02 -.243E+02 0.196E+02   0.202E+02 0.251E+02 -.202E+02   -.647E+00 -.740E+00 0.647E+00   -.360E-03 -.513E-02 0.360E-03
   0.243E+02 0.196E+02 0.196E+02   -.251E+02 -.202E+02 -.202E+02   0.740E+00 0.647E+00 0.647E+00   0.513E-02 0.360E-03 0.360E-03
   -.196E+02 0.196E+02 -.243E+02   0.202E+02 -.202E+02 0.251E+02   -.647E+00 0.647E+00 -.740E+00   -.360E-03 0.360E-03 -.513E-02
   0.316E+02 -.316E+02 -.316E+02   -.325E+02 0.325E+02 0.325E+02   0.952E+00 -.952E+00 -.952E+00   -.228E-01 0.228E-01 0.228E-01
   0.234E+01 -.194E+01 0.408E+01   -.237E+01 0.168E+01 -.426E+01   0.360E-01 0.262E+00 0.189E+00   0.736E-03 -.706E-03 0.735E-03
   0.489E+01 0.205E+01 0.205E+01   -.428E+01 -.173E+01 -.173E+01   -.622E+00 -.314E+00 -.314E+00   -.115E-02 0.854E-03 0.854E-03
   -.705E+00 0.271E+01 0.271E+01   0.864E+00 -.268E+01 -.268E+01   -.147E+00 -.326E-01 -.326E-01   -.899E-03 0.836E-03 0.836E-03
   -.614E+00 -.267E+01 -.720E+00   0.531E+00 0.279E+01 0.195E+00   0.682E-01 -.119E+00 0.538E+00   0.218E-03 -.931E-04 0.544E-03
   0.170E+01 0.127E+01 0.127E+01   -.221E+01 -.106E+01 -.106E+01   0.506E+00 -.209E+00 -.209E+00   0.177E-02 0.320E-04 0.320E-04
   -.614E+00 -.720E+00 -.267E+01   0.531E+00 0.195E+00 0.279E+01   0.682E-01 0.538E+00 -.119E+00   0.218E-03 0.544E-03 -.931E-04
   0.234E+01 0.408E+01 -.194E+01   -.237E+01 -.426E+01 0.168E+01   0.360E-01 0.189E+00 0.262E+00   0.736E-03 0.735E-03 -.706E-03
   -.410E+01 -.145E+01 -.145E+01   0.334E+01 0.157E+01 0.157E+01   0.757E+00 -.124E+00 -.124E+00   0.127E-02 0.167E-02 0.167E-02
   -.127E+01 -.170E+01 0.127E+01   0.106E+01 0.221E+01 -.106E+01   0.209E+00 -.506E+00 -.209E+00   -.320E-04 -.177E-02 0.320E-04
   0.720E+00 0.614E+00 -.267E+01   -.195E+00 -.531E+00 0.279E+01   -.538E+00 -.682E-01 -.119E+00   -.544E-03 -.218E-03 -.931E-04
   0.194E+01 -.234E+01 0.408E+01   -.168E+01 0.237E+01 -.426E+01   -.262E+00 -.360E-01 0.189E+00   0.706E-03 -.736E-03 0.735E-03
   -.205E+01 -.489E+01 0.205E+01   0.173E+01 0.428E+01 -.173E+01   0.314E+00 0.622E+00 -.314E+00   -.854E-03 0.115E-02 0.854E-03
   -.408E+01 -.234E+01 -.194E+01   0.426E+01 0.237E+01 0.168E+01   -.189E+00 -.360E-01 0.262E+00   -.735E-03 -.736E-03 -.706E-03
   0.145E+01 0.410E+01 -.145E+01   -.157E+01 -.334E+01 0.157E+01   0.124E+00 -.757E+00 -.124E+00   -.167E-02 -.127E-02 0.167E-02
   -.271E+01 0.705E+00 0.271E+01   0.268E+01 -.864E+00 -.268E+01   0.326E-01 0.147E+00 -.326E-01   -.836E-03 0.899E-03 0.836E-03
   0.267E+01 0.614E+00 -.720E+00   -.279E+01 -.531E+00 0.195E+00   0.119E+00 -.682E-01 0.538E+00   0.931E-04 -.218E-03 0.544E-03
   -.271E+01 0.271E+01 0.705E+00   0.268E+01 -.268E+01 -.864E+00   0.326E-01 -.326E-01 0.147E+00   -.836E-03 0.836E-03 0.899E-03
   0.267E+01 -.720E+00 0.614E+00   -.279E+01 0.195E+00 -.531E+00   0.119E+00 0.538E+00 -.682E-01   0.931E-04 0.544E-03 -.218E-03
   0.194E+01 0.408E+01 -.234E+01   -.168E+01 -.426E+01 0.237E+01   -.262E+00 0.189E+00 -.360E-01   0.706E-03 0.735E-03 -.736E-03
   -.205E+01 0.205E+01 -.489E+01   0.173E+01 -.173E+01 0.428E+01   0.314E+00 -.314E+00 0.622E+00   -.854E-03 0.854E-03 0.115E-02
   -.408E+01 -.194E+01 -.234E+01   0.426E+01 0.168E+01 0.237E+01   -.189E+00 0.262E+00 -.360E-01   -.735E-03 -.706E-03 -.736E-03
   0.145E+01 -.145E+01 0.410E+01   -.157E+01 0.157E+01 -.334E+01   0.124E+00 -.124E+00 -.757E+00   -.167E-02 0.167E-02 -.127E-02
   -.127E+01 0.127E+01 -.170E+01   0.106E+01 -.106E+01 0.221E+01   0.209E+00 -.209E+00 -.506E+00   -.320E-04 0.320E-04 -.177E-02
   0.720E+00 -.267E+01 0.614E+00   -.195E+00 0.279E+01 -.531E+00   -.538E+00 -.119E+00 -.682E-01   -.544E-03 -.931E-04 -.218E-03
   0.140E+02 -.140E+02 -.140E+02   -.134E+02 0.134E+02 0.134E+02   -.594E+00 0.594E+00 0.594E+00   0.246E-01 -.246E-01 -.246E-01
   0.194E+01 0.335E+01 0.335E+01   -.129E+01 -.279E+01 -.279E+01   -.648E+00 -.561E+00 -.561E+00   0.204E-01 -.106E-01 -.106E-01
   -.335E+01 -.194E+01 0.335E+01   0.279E+01 0.129E+01 -.279E+01   0.561E+00 0.648E+00 -.561E+00   0.106E-01 -.204E-01 -.106E-01
   -.335E+01 0.335E+01 -.194E+01   0.279E+01 -.279E+01 0.129E+01   0.561E+00 -.561E+00 0.648E+00   0.106E-01 -.106E-01 -.204E-01
   -.420E+02 -.671E+02 -.671E+02   0.435E+02 0.690E+02 0.690E+02   -.144E+01 -.196E+01 -.196E+01   -.707E-02 -.205E-01 -.205E-01
   -.746E+02 -.430E+02 -.430E+02   0.776E+02 0.440E+02 0.440E+02   -.291E+01 -.951E+00 -.951E+00   -.379E-01 -.791E-02 -.791E-02
   -.522E+02 -.605E+02 -.537E+02   0.541E+02 0.628E+02 0.556E+02   -.181E+01 -.229E+01 -.184E+01   -.542E-02 0.161E-01 0.245E-01
   -.522E+02 -.537E+02 -.605E+02   0.541E+02 0.556E+02 0.628E+02   -.181E+01 -.184E+01 -.229E+01   -.542E-02 0.245E-01 0.161E-01
   0.671E+02 0.420E+02 -.671E+02   -.690E+02 -.435E+02 0.690E+02   0.196E+01 0.144E+01 -.196E+01   0.205E-01 0.707E-02 -.205E-01
   0.605E+02 0.522E+02 -.537E+02   -.628E+02 -.541E+02 0.556E+02   0.229E+01 0.181E+01 -.184E+01   -.161E-01 0.542E-02 0.245E-01
   0.430E+02 0.746E+02 -.430E+02   -.440E+02 -.776E+02 0.440E+02   0.951E+00 0.291E+01 -.951E+00   0.791E-02 0.379E-01 -.791E-02
   0.537E+02 0.522E+02 -.605E+02   -.556E+02 -.541E+02 0.628E+02   0.184E+01 0.181E+01 -.229E+01   -.245E-01 0.542E-02 0.161E-01
   0.671E+02 -.671E+02 0.420E+02   -.690E+02 0.690E+02 -.435E+02   0.196E+01 -.196E+01 0.144E+01   0.205E-01 -.205E-01 0.707E-02
   0.605E+02 -.537E+02 0.522E+02   -.628E+02 0.556E+02 -.541E+02   0.229E+01 -.184E+01 0.181E+01   -.161E-01 0.245E-01 0.542E-02
   0.537E+02 -.605E+02 0.522E+02   -.556E+02 0.628E+02 -.541E+02   0.184E+01 -.229E+01 0.181E+01   -.245E-01 0.161E-01 0.542E-02
   0.430E+02 -.430E+02 0.746E+02   -.440E+02 0.440E+02 -.776E+02   0.951E+00 -.951E+00 0.291E+01   0.791E-02 -.791E-02 0.379E-01
   -.590E+02 0.590E+02 0.590E+02   0.610E+02 -.610E+02 -.610E+02   -.196E+01 0.196E+01 0.196E+01   -.198E-01 0.198E-01 0.198E-01
   -.631E+02 0.509E+02 0.509E+02   0.654E+02 -.525E+02 -.525E+02   -.231E+01 0.161E+01 0.161E+01   0.603E-02 -.610E-02 -.610E-02
   -.509E+02 0.631E+02 0.509E+02   0.525E+02 -.654E+02 -.525E+02   -.161E+01 0.231E+01 0.161E+01   0.610E-02 -.603E-02 -.610E-02
   -.509E+02 0.509E+02 0.631E+02   0.525E+02 -.525E+02 -.654E+02   -.161E+01 0.161E+01 0.231E+01   0.610E-02 -.610E-02 -.603E-02
   -.959E+01 0.959E+01 0.959E+01   0.955E+01 -.955E+01 -.955E+01   0.395E-01 -.395E-01 -.395E-01   -.618E-02 0.618E-02 0.618E-02
   0.838E+01 -.838E+01 0.345E+02   -.835E+01 0.835E+01 -.346E+02   -.506E-01 0.506E-01 0.860E-01   0.844E-02 -.844E-02 -.301E-01
   0.838E+01 0.345E+02 -.838E+01   -.835E+01 -.346E+02 0.835E+01   -.506E-01 0.860E-01 0.506E-01   0.844E-02 -.301E-01 -.844E-02
   -.345E+02 -.838E+01 -.838E+01   0.346E+02 0.835E+01 0.835E+01   -.860E-01 0.506E-01 0.506E-01   0.301E-01 -.844E-02 -.844E-02
   0.860E+00 -.860E+00 -.860E+00   -.121E-12 0.107E-13 -.124E-12   -.941E+00 0.941E+00 0.941E+00   0.190E-02 -.190E-02 -.190E-02

 POSITION                                       TOTAL-FORCE (eV/Angst)
      2.38549      2.41708      7.71266         0.003519      0.001238     -0.003519
      7.68107      7.71266      7.71266        -0.001238     -0.003519     -0.003519
      2.38549      7.71266      2.41708         0.003519     -0.003519      0.001238
      5.35912      4.73903      4.73903         0.018470     -0.018470     -0.018470
      0.14632      1.83614      7.13216         0.008929      0.000224      0.007494
      4.99767      3.12615      3.12615        -0.014125      0.004559      0.004559
     10.04970      7.54247      7.54247         0.011337      0.005537      0.005537
      5.37931      8.49235      1.47112        -0.012865     -0.010029      0.013083
      9.61131      2.69233      2.69233        -0.003890      0.001857      0.001857
      5.37931      1.47112      8.49235        -0.012865      0.013083     -0.010029
      0.14632      7.13216      1.83614         0.008929      0.007494      0.000224
      5.23342      8.25748      8.25748         0.005407      0.003243      0.003243
      7.40582      0.48684      2.69233        -0.001857      0.003890      0.001857
      8.62703      4.71884      8.49235        -0.013083      0.012865     -0.010029
      8.26202      9.95183      7.13216        -0.000224     -0.008929      0.007494
      6.97200      5.10048      3.12615        -0.004559      0.014125      0.004559
      2.96599      9.95183      1.83614        -0.007494     -0.008929      0.000224
      1.84068      4.86473      8.25748        -0.003243     -0.005407      0.003243
      2.55568      0.04845      7.54247        -0.005537     -0.011337      0.005537
      1.60580      4.71884      1.47112         0.010029      0.012865      0.013083
      2.55568      7.54247      0.04845        -0.005537      0.005537     -0.011337
      1.60580      1.47112      4.71884         0.010029      0.013083      0.012865
      8.26202      7.13216      9.95183        -0.000224      0.007494     -0.008929
      6.97200      3.12615      5.10048        -0.004559      0.004559      0.014125
      2.96599      1.83614      9.95183        -0.007494      0.000224     -0.008929
      1.84068      8.25748      4.86473        -0.003243      0.003243     -0.005407
      7.40582      2.69233      0.48684        -0.001857      0.001857      0.003890
      8.62703      8.49235      4.71884        -0.013083     -0.010029      0.012865
     -0.15557      0.15557      0.15557        -0.005892      0.005892      0.005892
      0.13346      5.03300      5.03300         0.025909     -0.008155     -0.008155
      5.06349     -0.13180      5.03466         0.008155     -0.025909     -0.008155
      5.06349      5.03466     -0.13180         0.008155     -0.008155     -0.025909
      1.02800      1.35286      1.35286        -0.006950     -0.005100     -0.005100
      1.41354      6.15244      6.15244         0.018763      0.011096      0.011096
      6.23792      1.03353      6.26106         0.017206     -0.004346      0.012486
      6.23792      6.26106      1.03353         0.017206      0.012486     -0.004346
      8.74529      9.07015      1.35286         0.005100      0.006950     -0.005100
      9.06462      3.86023      6.26106         0.004346     -0.017206      0.012486
      3.94571      8.68461      6.15244        -0.011096     -0.018763      0.011096
      3.83709      3.86023      1.03353        -0.012486     -0.017206     -0.004346
      8.74529      1.35286      9.07015         0.005100     -0.005100      0.006950
      9.06462      6.26106      3.86023         0.004346      0.012486     -0.017206
      3.83709      1.03353      3.86023        -0.012486     -0.004346     -0.017206
      3.94571      6.15244      8.68461        -0.011096      0.011096     -0.018763
      1.01113      9.08702      9.08702        -0.008068      0.008068      0.008068
      1.25029      3.80251      3.80251         0.005616     -0.002790     -0.002790
      6.29564      8.84786      3.80251         0.002790     -0.005616     -0.002790
      6.29564      3.80251      8.84786         0.002790     -0.002790     -0.005616
      7.36332      2.73483      2.73483        -0.000170      0.000170      0.000170
      0.17098     -0.17098      5.69129        -0.008049      0.008049      0.004332
      0.17098      5.69129     -0.17098        -0.008049      0.004332      0.008049
      4.40520     -0.16932     -0.16932        -0.004332      0.008049      0.008049
    total drift:                               -0.079439      0.079437      0.079438

  FREE ENERGIE OF THE ION-ELECTRON SYSTEM (eV)
  free  energy   TOTEN  =      -214.29863520 eV

  energy  without entropy=     -214.29863520  energy(sigma->0) =     -214.29863520

 d Force = 0.1019375E-02[ 0.790E-03, 0.125E-02]  d Energy = 0.1442218E-02-0.423E-03
 d Force = 0.5730999E+00[ 0.571E+00, 0.575E+00]  d Ewald  =-0.6780788E-01 0.641E+00

 Conjugate gradient step on ions:
 trial-energy change:   -0.001442  1 .order   -0.001451   -0.001523   -0.001380
  (g-gl).g = 0.172E-02      g.g   = 0.189E-02  gl.gl    = 0.304E-02
 g(Force)  = 0.144E-02   g(Stress)= 0.448E-03 ortho     = 0.377E-03
 gamma     =   0.56467
 trial     =   0.72351
 opt step  =   2.89406  (harmonic =   7.69506) maximal distance =0.00666577
 next E    =  -214.305291   (d E  =  -0.00810)

 reached required accuracy - stopping structural energy minimisation

 total charge

# of ion     s       p       d       tot
  1        1.588   3.577   0.000   5.166
  2        1.588   3.577   0.000   5.166
  3        1.588   3.577   0.000   5.166
  4        1.591   3.573   0.000   5.164
  5        0.086   0.156   0.000   0.243
  6        0.087   0.162   0.000   0.249
  7        0.077   0.140   0.000   0.218
  8        0.082   0.136   0.000   0.219
  9        0.105   0.183   0.000   0.288
 10        0.082   0.136   0.000   0.219
 11        0.086   0.156   0.000   0.243
 12        0.072   0.127   0.000   0.199
 13        0.105   0.183   0.000   0.288
 14        0.082   0.136   0.000   0.219
 15        0.086   0.156   0.000   0.243
 16        0.087   0.162   0.000   0.249
 17        0.086   0.156   0.000   0.243
 18        0.072   0.127   0.000   0.199
 19        0.077   0.140   0.000   0.218
 20        0.082   0.136   0.000   0.219
 21        0.077   0.140   0.000   0.218
 22        0.082   0.136   0.000   0.219
 23        0.086   0.156   0.000   0.243
 24        0.087   0.162   0.000   0.249
 25        0.086   0.156   0.000   0.243
 26        0.072   0.127   0.000   0.199
 27        0.105   0.183   0.000   0.288
 28        0.082   0.136   0.000   0.219
 29        0.965   1.377   0.000   2.342
 30        0.966   1.373   0.000   2.338
 31        0.966   1.373   0.000   2.338
 32        0.966   1.373   0.000   2.338
 33        1.332   2.442   0.000   3.774
 34        1.336   2.444   0.000   3.780
 35        1.328   2.451   0.000   3.779
 36        1.328   2.451   0.000   3.779
 37        1.332   2.442   0.000   3.774
 38        1.328   2.451   0.000   3.779
 39        1.336   2.444   0.000   3.780
 40        1.328   2.451   0.000   3.779
 41        1.332   2.442   0.000   3.774
 42        1.328   2.451   0.000   3.779
 43        1.328   2.451   0.000   3.779
 44        1.336   2.444   0.000   3.780
 45        1.330   2.474   0.000   3.804
 46        1.332   2.443   0.000   3.775
 47        1.332   2.443   0.000   3.775
 48        1.332   2.443   0.000   3.775
 49        1.305   2.519   0.000   3.824
 50        1.307   2.446   0.000   3.753
 51        1.307   2.446   0.000   3.753
 52        1.307   2.446   0.000   3.753
tot       38.779  72.419   0.000 111.198